Traveling Salesman Problem/TSP_generados/Aleatorio1621103237_5.tsp
NAME: Aleatorio1621103237_5.tsp
COMMENT: Randomly generated scenario
TYPE: TSP
DIMENSION: 5
EDGE_WEIGHT_TYPE: ATT
NODE_COORD_SECTION
1 25.53 9.06
2 25.38 11.35
3 48.11 40.76
4 17.53 1.39
5 27.5 16.51
