Traveling Salesman Problem/TSP_generados/Aleatorio1621103237_5.opt.tour
NAME: Aleatorio1621103237_5.opt.tour
COMMENT: Optimal solution for Aleatorio1621103237_5 (100.08780003848248)
TYPE: TOUR
DIMENSION: 5
TOUR_SECTION
1 3 5 2 4
-1
EOF
